DIMENSION: 12
NODE_COORD_SECTION
10 -4117.4603174603 9916.2162162162
11 -304.3419267300 140.9818569904
2 -153.9877300613 -740.0372439479
3 -20.6432311144 273.6770691995
4 -257.7281191806 -308.1649151172
5 -27.9730740464 -274.4878957169
6 80.0278357690 -56.6402814424
7 -125.8581235698 189.7703549061
8 447.0827679783 -779.8219584570
9 -304.3975373791 716.2471395881
12 203.3598045205 418.7574671446
1 307.3270013569 206.4323111444
